
 102   30
  10   10   10   10   10   10   10   10   10   10   10   10   10   10   10   10   10   10   10   10   10   10   10   10   10   10   10   10   10   10

   0   0   0   0   0   0   0   0   0   0   0   0   0   0   0   0   0   0   0   0   0   0   0   0   0   0   0   0   0   0   0  22 2 3 4 5 7 8 9 10 12 13 16 17 18 19 21 23 25 26 27 30 33 35 
   5   0   0   4   0   3   0   0   1   0   0   0   0   2   0   0   0   0   0   0   0   0   0   0   0   0   0   3   0   0   0  14 101 63 61 58 47 41 40 39 38 37 28 20 11 6 
   5   0   0   0   1   0   0   0   0   0   0   0   0   0   1   0   0   0   1   0   0   0   0   0   0   0   0   0   0   0   0  16 73 61 57 54 52 48 45 44 43 40 39 38 34 24 22 14 
   6   0   0   0   0   0   0   0   0   0   0   0   0   0   0   3   0   0   0   0   0   0   0   0   0   0   0   0   0   0   0  19 101 93 73 72 69 66 64 63 62 61 57 49 48 44 43 38 36 29 24 
   9   0   0   0   0   0   0   0   0   1   0   0   0   0   0   0   0   0   0   1   0   0   0   0   0   0   0   0   0   0   0  13 101 73 64 58 57 51 50 45 44 43 31 28 15 
   5   0   1   0   0   0   3   0   0   0   2   0   0   0   0   0   0   0   0   0   0   0   0   0   0   0   0   0   0   0   0  13 72 66 65 64 62 53 49 48 44 43 42 36 24 
   3   0   5   0   0   0   0   4   6   0   4   0   0   0   0   0   0   0   0   0   0   0   3   0   0   1   0   5   0   0   0  12 101 71 66 63 61 57 54 50 44 41 32 24 
   7   0   7   8   0   0   0   0   0   0   7   0   0   0   8   0   0   0   6   0   0   0   0   0   0   0   0   0   0   2   4  17 100 96 71 66 63 60 59 58 57 55 54 53 49 47 46 43 41 
   8   0   0   4   0   0   0   0   0   0   0   0   0   0   0   0   0   0   0   0   0   0   0   0   0   0   0   0   0   7   0  11 98 94 69 66 64 61 56 54 51 29 28 
   2   0   0   0   0   0   0   0   0   0   0   0   0   5   0   0   0   0   0   0   0   0   0   0   0   0   0   0   0   0   0  16 101 98 94 88 72 71 66 64 63 62 60 56 55 52 42 41 
   9   0   8   0   0   0   0   6   0   0   0   0   0   0   0   0   0   0   0   0   0   1   0   0   0   0   0   0   0   0   4  10 93 73 71 65 54 49 45 44 43 24 
   8   3   0   0   9   0   0   0   0   0   0   0   0   0   0   0   0   0   0   0   0   0   0   0   0   0   2   0   0   0   5  19 100 94 93 90 88 87 73 72 71 70 68 67 61 59 56 51 50 48 44 
   1   0   0   0   0   0   4   0   0   0   0   0   0   0   0   0   0   0   0   0   0   0   0   0   0   0   0   0   0   0   0  17 101 95 93 91 89 70 69 66 65 64 62 60 57 56 55 47 43 
  10   0   0   0   0   0   0   0   0   0   0   0   0   0  10   0   0   0   0   0   0   0   0   0   0   0   0   8   0   8   0  17 101 100 98 95 94 92 88 84 81 68 66 64 63 62 60 55 42 
   7   8   0   0   0   0   4   0   2   0   0   0   0   0   0   0   0   2   4   0   0   9   0   0   0   0   0   0   0   0   0  12 98 94 93 88 87 72 61 60 56 55 48 36 
   1   0   0   0   0   0   0   0   0   0   0   0   0   0   0   0   0   0   0   7   0   0   0   0   0   0   0   0   0   0   0  12 101 94 85 67 64 62 60 59 54 51 48 36 
  10   0   0   0   0   0   0   0   0   0   4   0   0   0   5   6   0   0   0   0   0   0   0   0   0   0   0   0   3   0   5  11 98 94 91 70 69 66 65 61 59 56 31 
   6   0   0   0   0   0   0   0   0   0   0   0   0   0   0   4   0   0   0   0   0   0   0   1   1   0   0   0   0   0   0   8 100 93 82 69 60 48 43 36 
   6   7   0   0   4   0   0   0   0   0   0   0   0  10   0   0   0   0   0   0   0   0   0   0   0   0   0   0   0   0   0  16 96 95 94 90 88 85 84 72 70 66 65 60 58 55 52 48 
   5   0   0   8   0   0   0   5   0   0   0   0   0   4   0   0   0   0   0   0   0   0   0   0   0   0   0   0   0   0   0  15 99 97 96 95 92 90 84 78 68 67 65 62 54 49 42 
   7   0   0   0   0   0   0   0   0   0   0   0   0   0   3   0   0   6   0   4   1   4   0   0   0   0   0   0   0   0   0  19 100 99 96 95 93 91 90 88 86 85 78 76 68 67 65 63 60 57 51 
   7   0   0   6   0   0   0   0   0   0   0   0   0   0   0   0   4   0   0   0   0   0   6   0   0   0   0  10   4   0   0  18 99 95 93 92 91 90 86 85 84 78 69 67 66 65 60 59 51 49 
   9   0   0   0   0   0   0   0   0   0   0   1   0   0   0   0   0   0   0   0   0   0   0   0   0   0   0   0   0   0   0  17 100 98 92 91 90 89 88 83 71 70 68 65 63 59 56 55 52 
  10   0   0   0   0   0   0   0  10   0   0   0   0   0   6   0   6   0   0   0   4   0   0   0   0   0   0   0   6  10   0  17 100 95 94 92 91 90 88 87 86 84 76 68 60 59 56 55 51 
   9   0   0   0   0   0   0   0   0   0   0   0   0   0   0   0   0   0   0   0   0   0   0   0   0   0   0   0   0   0   0  19 101 100 99 98 96 91 89 88 87 86 84 83 68 67 66 61 60 59 56 
   8   8   0   0   0   0   0   0   0   0   0   0   0   0   0   0   0   0   0   0   0   0   0   0   0   0   0   0   0   0   0  17 99 97 95 93 91 89 85 84 83 82 81 71 70 68 65 60 53 
   4   0   6   0   0   3   5   0   0   0   8   0   0   0   4   0   0   0   6   0   0   0   7   0   0   0   0   0   0   0   5  18 101 99 98 95 94 93 92 91 87 86 84 80 78 69 68 67 66 51 
   1   0   0   0   0   5   0   0   5   0   0   0   0   0   0   0   4   0   0   0   0   0   0   0   4   0   0   0   0   0   0  11 95 90 88 84 82 78 72 68 67 48 42 
   8   0   0   0   0   0   0   0   0   0   0   0   0   0   6   0   0   0   0   0   0   0   0   6   0   0   0   0   0   0   0  18 100 99 96 95 92 90 89 88 86 85 84 83 81 76 68 65 60 55 
   2   0   0  10   0   0   0   0   0   0   0   0   0   0   0   7   0   0   0  10   0   0   0   0   5   0   0   0   0   3   0  16 99 96 95 94 93 91 88 87 86 84 77 68 66 62 59 56 
   5   0   7   0   0   0   0   0   0   0   0   0   0   0   0   4   0   0   0   0   5   0   0   0   0   0   6   0   0   0   0  17 97 95 93 92 90 89 88 85 84 83 82 81 77 76 71 68 55 
   2   0   0   0   0   0   0   0   0   0   0   0   0   9   9   9   9   0   0   0   7   0   0   6   0   0   0   0   7   0   0  18 99 98 96 94 93 89 88 87 85 83 82 81 80 78 77 76 70 68 
   3   0   0   0   0   0   0   0   0   0   0   0   0   0   0   0   0   0   0   0   6   0   0   0   0   0   0   0   0   0   0  12 100 96 95 94 93 86 83 79 71 65 62 60 
   4   0   0   0   0   0   0   0   0   0   0   0   0   0   9   0   0   0   0   0   0   0   0   0   0   0   0   0   0   0   6  15 94 89 88 86 85 84 83 82 81 80 75 69 68 67 63 
   1   0   0   7   0  10   0   0   0   0   0   0   1   0   0   7   0   0   0   0   0   0   0   5   0   0   0   0   0   8   0  16 98 97 92 91 90 89 88 87 85 84 83 82 81 79 78 66 
   7   0   0   0   6   5   5   0   0   0   0   6   0   0   0   0   0   0   0   0   0   0   0   0   0   0   0   0   0   0   8  15 99 97 96 91 90 89 84 83 81 80 79 77 71 70 68 
   9   0   0   0   0   0   0   0   0   0   4   0   4   5   0   0   0   0   0   0   0   0   0   6   0   0   0   0   7   0  10  10 100 90 89 86 85 83 79 69 59 54 
   1  10   0   0   0   0   0   0   8   0   0   0   4   0   0   0   0   0   0   0   0   0   9   0   0   0   0   0   0   0   0  12 97 90 89 88 84 80 77 76 75 74 71 56 
   9   9   0   0   0   0   0   0   0   0   7   0   6   0   0   0   0   0   0   0   0   0   0   0   0   0   0   0   0   0   0  11 96 92 86 84 83 81 78 77 76 67 59 
   6   0   5   3   0   0   0   0   0   0   0   0   6   0   0   0   0   0   0   0   0   0   0   0   0   0   0   0   0   5   0  11 100 96 92 90 84 83 78 74 69 67 65 
   4   0   0   4   0   0   0   0   0   0   0   0   0   0   0   0   0   0   0   0   0   0   0   0   0   0   0   4   0   0   0   7 95 93 84 82 68 65 48 
   2   0   0   0   0   6   0   0   0   0   0   0   9   0   0   0   0   0   0   0   0   0   0   0   9   0   0   0   0   0   0  10 93 91 87 85 83 79 77 76 70 59 
   7   5   0   0   8   0   0   0   0   0   0   0   0   5   0   0   0   0   0   0   0   6   0   0   0   0   6   0   0   0   0  12 98 94 88 85 84 83 80 78 77 75 74 67 
   3   0   0   0   0   0   4   0   0   0   0   0   0   0   0   0   0   0   7   0   0   0   0   0   6   0   0   0   0   0   0  12 99 91 85 84 82 81 80 79 78 76 75 74 
   6   0   0   6   0   0   0   0   0   0   0   0   9   0   0   0   0   5   0   0   0   0   0   5   0   0   0   0   0   0   0  10 100 98 97 84 83 79 77 75 69 68 
   5   0   6   9   6   0   0   4   0   0   0   0   0   0   0   0   0   0   0   0   0   0   0   0   6   0   0   0   0   0   0   9 101 90 87 86 80 78 75 68 61 
   5   0   0   0   0   0   0   0   0   0   0  10   0   0   0   0   0   0   0   0   0   0   7   0   0   0   0   0  10   7   0   9 98 85 84 82 78 77 76 75 74 
   2   0   0   0   0   0   0   0   0   0   0   0   0   7   0   0   0   0   0   0   0   0   0   0   9   0  10   0   0   0   0   7 92 89 81 79 77 75 74 
  10   0   4   0   0   0   0   0   0   8   0   0   0   0   0   0   0   0   0   8   0   0   0   0   6   0   0   0   0   6   0   7 94 88 87 80 77 75 74 
   2   0   0   0   0   0   0   0   0   0   0   0   0   0   0   0   0   0   0   0   7   8   0   0   0   6   0   0   0   0   0   6 95 86 80 78 74 69 
   8   0   7   5   0   0   0  10   0   0   0   0   0   0   0   3   0   0   0   0   0   0   0   0  10   0   0   0   0   0   0   6 97 89 83 82 81 77 
   5   4   0   4   0   0   0   0   0   0   9   0   5   0   0   0   0   0   0   5   0   0   0   0   0   0   0   0   4   0   0   5 93 82 78 74 69 
   3   0   0   0   0   0   0   0   0   0   0   0   0   0   0   0   0   0   0   0   4   0   0   0   3   0   0   0   0   0   0   4 90 74 69 67 
   9   0   0   0   6   0   0   0   0   0   0   0   0   0   0   0   3   0   0   0   0   0   0   0   0   0   6   0   0   0   0   5 88 87 81 75 74 
   8   0   0   0   0   0   0   0   0   0   0   0   8   0   0   0   0   0   0   0   0   0   0   0   0   0   0   0   7   5   0   4 78 75 74 67 
   8   3   0   0   0   0   0   4   0   8   0   0   0   0   0   0   0   0   0   0   0   0   0   0   3   0   0   0   0   0   0   4 85 82 81 78 
   2   0   3   0   0   0   0   0   2   0   0   5   0   0   0   9   0   5   0   0   0   0   0   0   0   0   0   0   0   9   5   4 94 92 75 74 
   6   6   0   5   0   7   0   0   0   0   0   0   0   0   0   0   0   0   0   0   0   0   0   0   0   0   0   0   0   0   0   4 91 78 75 74 
   2   0   0   0   0   6  10   0   8   0   0   0   0   0   0   0   7   0   8   0   0   0   0   7   0   0   0   0   0   0   5   3 80 75 74 
   4   7   0   0   0   0   0   0   6   6   0   0   0   0   0   0   0   7   0   0   0   0   0   0   0   0   0   0   0   0   0   3 80 77 74 
   3   0   0   0   0   0   0   0   0   0   0   6   0   0   0   3   0   0   0   9   0   0   0   0   0   8   0   0   0   0   0   3 77 76 74 
   4   0   0   0   0   0   5   0   0   0   0   0   0   0   0   0   0   0   0   0   4   0   4   0   0   0   0   0   0   0   0   3 82 76 74 
   2   0   5   0   0   0   0   0   0   0   0   0   0   0   0   0   0   0   0   0   0   0   3   0   0   0   0   0   0   0   8   3 79 77 74 
   2   0   0   0   0   0   0   0   0   0   6   0   6   0   0   0   5   7   0   0   0   5   0   0   0   0   0   0   0   0   0   3 96 90 74 
   2   0   0   0   0   0   0   0   0   0   9   0   0   0   0   0   0   0   0   0   0   0   0   0   0   0   0   0   0   0   0   2 87 75 
   3   0   0   0   0   0   0   0   0   0   7   0  10   0   0   0   0   0   0   7   0   0   6   0   0   0   0   0   0   0   0   2 76 75 
   3   0   9   0   0   0   0   0   0   0   0   0   0   0   0   0   0   0   0   4   0   0   0   0   0   0   0   0   0   0   0   1 79 
   2   0   0   0   0   3   0   0   0   0   0   0   0   0   0   0   0   0   0   0   0   0   0   0   8   0   0   0   0   0   8   1 74 
   9   0   0   0   0   0   5   0   0   0   0   0   0   0   0   6   0   0   0   0   0   5   0   0   0   0   0   0   0   0   0   1 76 
   3   8   0   0   0   0   0   0   0   0  10   0   0   0   0   0   0   0   6   0   0   0   0   6   8   0   0   0   0   0   0   1 86 
   4   0   0   0   0   0   0   0   0   0   0   0   6   0   0   0   0   0   0   0   0   0   0   0   0   6   0   0   0   0   1   1 78 
   7   0   0   0   0   0   9   7  10   0   0   0   0   0   0   0   0  10   0   0   0   0   0   0   0   0   0   0   0   0   0   1 77 
   2   0   5   0   0   0   0   0   6   7   0   0   0   0   0   0   0   0   0   0   0   0   0   0   0   5   0   0   0   0   0   1 78 
   1   0   7   6   0   0   0   0   0   0   4   0   0   0   0  10   0   0   0   0   0   5   0   0   0   8   0   0   0   0   2   1 102
   8   0   0   0   0   0   0   0   0   0   0   0   0   0   0   0   0   0   0   7   0   0   0   0   0   0   0   0   0   0   0   1 102
   3   0   7   0   0   0   0   8   0   6   7   4   0   0   0   0   8   0   0   0   0  10   0   0   0   0   5   7   0   5   0   1 102
   1   0   0   0   0   7  10   0   8   0   0   0   6   0   0   0   0   4   0   0   6   0   0   8   0   0   0   0   0   0   0   1 102
  10   0   0   0   0   5   0   6   0   0   0   0   0   0   0   0   0   0   0   1   8   0   0   0   0   0   0   0   0   0   0   1 102
   8   0   9   0   0   0   3   0   0   0   2   0   0   0   0   7   0   0   5   0   0   0   0   0   0   0   4   5   0   0  10   1 102
   5   0   0   9   0   0   0   0   4   0   0   0   0   0   0   0   6   0   0   0   0   0   0   8   0   0   0   0   0   6   0   1 102
   9   0   0   0   0   0   0   0   0   0   0   0   0   0   0   0   0   0   4   0   0   0  10   0   0   0   0   0   0   6   0   1 102
   5   0   0   0   7   0   0   0   0   0   0   0   7   0   0   0  10   0   0   0   0   0   0   0   0   0   0   0   0   0   0   1 102
   9   0   0   6   0   0   7   0   0   0   0   0   0   0   0   0   0   0   0   0   0   0   0   0   0   0   7   0   0   0   5   1 102
   8   0   5   0   0   0   6   0   0   0   0   0   6   0   0   0   0   0   0   0   0   0   0   0   0   6   0   0   0   0   0   1 102
   4   0   0   0   0   0   0   0   0   0   0   0   3   7   0   6   0   0   0  10   0   0   0   0   0   5   8   0   0   0   0   1 102
   6   0   0   0   0   0   8   0   0   0   0   0   0   0   0   0   4   0   0   7   0   7   5   0   0   0   9   0   0   0   0   1 102
   5   0   8   0   0   0   0  10   0   0   0   0   0   0   0   0   0   5   0   0   6   0   0   0   0   0   0   0   0   0   0   1 102
   7   5   0   0   9   5   8   0   0   0   0   0   0   0   0   0   0   0   0   0   9   0   0   0   0   0   0   0   0   0   0   1 102
   9   0   0   0   0   0   0   0   0   0   0   0   0   0   6   0   0   0   8   0   9   0   0   0   6   0   0   0   0   0   0   1 102
   1   0   0   0   0   0   0   0   0   8   0   0   0   0   0   0   0   0   0   0   0   0   0   0   0   7   0   0   0   3   0   1 102
  10   0   0   0   0   0   0   0   0   0   0   0   0   0   0   0   0   7   0   0   0   0   0   0   0   8   0   0   0   0   0   1 102
   6   0   0   0   0   0   0   0   0   0   6   0   0   0   0   0   0   4   0   0   0   0   6   0   0   0   0   0   0   0   0   1 102
   8   0   0   4   0   0   0   5   0   0   0   0   0   0   7   0   0   0   7   5   0   6   0   0   0   0   0   0   0   0   0   1 102
   4   0   0   0   4   0   0   0   0   4   0   0   0   0   6   0   0   0   0   0   0   0   0   0   0   0   0   0   0   0   8   1 102
   6   0   0   0   0   9   0   0   0   0   0   9   0   0   0   0   0   0   0   0   0   0   0   0   0   0   5   0   0   0   0   1 102
   7   3   0   0   0   0   0   3   7   0   0   0   0   0   3   0   0   0  10   0   0   0   0   0   0   0   0   0   0   0   0   1 102
   6   0   0   0   0   0   0   0   0   0   0   0   0   0   0   0   0   0   0   0   0   0   0   0   0   0   0   0   8   0   7   1 102
   2   4   0   0   0   0   0   0   0   0   0   0   0   0   0   0   0  10   0   0   8   0   0   8   0   0   0   0   0   0   8   1 102
   9   0   0   0   0   6   0   0   0   0   0   0   0   0   7   0   0   0   0   0   0   0   0   0   0   0   0   0   0   0   0   1 102
   1   0   0   0   0  10   0   0   7   0   0   0   0   0   0   0   0   0   0   5   0   0   0   0   0   0   4   0   0   0   0   1 102
  10   0   0   0   0   0   0   0   0   0   0   7   0   0   0   0   0   0   0   0   0   0   0   0   0   0   0   0   4   0   0   1 102
   0   0   0   0   0   0   0   0   0   0   0   0   0   0   0   0   0   0   0   0   0   0   0   0   0   0   0   0   0   0   0   0 
